[222.0, 270.0, 289.0, 287.0, 325.0, 335.0, 334.0, 329.0, 349.0, 400.0, 385.0, 391.0, 403.0, 422.0, 393.0, 463.0, 450.0, 431.0, 533.0, 564.0, 1171.0, 533.0, 1442.0, 502.0, 520.0, 493.0, 632.0, 686.0, 1020.0, 1075.0, 1401.0, 1416.0, 596.0, 606.0, 724.0, 751.0, 1131.0, 1348.0, 1220.0, 1641.0, 897.0, 686.0, 813.0, 1073.0, 1106.0, 1277.0, 1267.0, 1302.0, 743.0, 641.0, 705.0, 1288.0, 1481.0, 1391.0, 1427.0, 1602.0, 801.0, 726.0, 941.0, 1546.0, 1519.0, 1418.0, 1432.0, 1416.0]
